
******************************************************************************
This program contains Ipopt, a library for large-scale nonlinear optimization.
 Ipopt is released as open source code under the Eclipse Public License (EPL).
         For more information visit http://projects.coin-or.org/Ipopt

This version of Ipopt was compiled from source code available at
    https://github.com/IDAES/Ipopt as part of the Institute for the Design of
    Advanced Energy Systems Process Systems Engineering Framework (IDAES PSE
    Framework) Copyright (c) 2018-2019. See https://github.com/IDAES/idaes-pse.

This version of Ipopt was compiled using HSL, a collection of Fortran codes
    for large-scale scientific computation.  All technical papers, sales and
    publicity material resulting from use of the HSL codes within IPOPT must
    contain the following acknowledgement:
        HSL, a collection of Fortran codes for large-scale scientific
        computation. See http://www.hsl.rl.ac.uk.
******************************************************************************

This is Ipopt version 3.13.2, running with linear solver ma27.

Number of nonzeros in equality constraint Jacobian...:      808
Number of nonzeros in inequality constraint Jacobian.:        0
Number of nonzeros in Lagrangian Hessian.............:      702

Total number of variables............................:      351
                     variables with only lower bounds:      108
                variables with lower and upper bounds:      189
                     variables with only upper bounds:        0
Total number of equality constraints.................:      350
Total number of inequality constraints...............:        0
        inequality constraints with only lower bounds:        0
   inequality constraints with lower and upper bounds:        0
        inequality constraints with only upper bounds:        0

iter    objective    inf_pr   inf_du lg(mu)  ||d||  lg(rg) alpha_du alpha_pr  ls
   0  0.0000000e+00 4.54e-01 9.99e-16  -1.0 0.00e+00    -  0.00e+00 0.00e+00   0
   1  6.8745092e+00 2.00e+00 4.49e+04  -1.0 2.60e+05    -  5.55e-01 6.16e-01h  1
   2  7.6776347e+00 1.82e+00 4.12e+04  -1.0 1.25e+05    -  8.30e-01 7.44e-02h  1
   3  8.0475832e+00 1.76e+00 3.99e+04  -1.0 1.67e+05    -  8.35e-01 3.37e-02h  1
   4  2.5570690e+01 1.23e-01 5.05e+03  -1.0 1.64e+05    -  8.44e-01 9.90e-01h  1
   5  2.8055054e+01 5.79e-03 1.41e+03  -1.0 1.63e+04    -  9.38e-01 9.90e-01h  1
   6  2.8099564e+01 7.77e-05 1.65e+01  -1.0 2.84e+02    -  9.90e-01 9.90e-01h  1
   7  2.8100426e+01 7.65e-05 2.84e+07  -1.0 8.78e+02    -  9.90e-01 1.55e-02f  7
   8  2.8103866e+01 7.41e-05 5.60e+07  -1.0 1.76e+03    -  9.94e-01 3.09e-02f  6
   9  2.8211657e+01 4.99e-05 8.66e+05  -1.0 1.73e+03    -  1.00e+00 9.90e-01H  1
iter    objective    inf_pr   inf_du lg(mu)  ||d||  lg(rg) alpha_du alpha_pr  ls
  10  2.8212313e+01 5.48e-07 3.06e+07  -1.0 1.04e+01    -  1.00e+00 9.90e-01h  1
  11  2.8212317e+01 5.49e-09 3.06e+09  -1.0 5.68e-02    -  1.00e+00 9.90e-01h  1
  12  2.8212317e+01 5.48e-11 3.06e+11  -1.0 5.68e-04    -  1.00e+00 9.90e-01h  1
In iteration 12, 27 Slacks too small, adjusting variable bounds
  13  2.8212317e+01 3.21e-12 3.06e+13  -1.0 5.68e-06    -  1.00e+00 9.90e-01h  1
  14  2.8212317e+01 1.68e-12 5.00e-01  -1.0 5.07e-07    -  1.00e+00 1.00e+00H  1
  15  2.8212313e+01 2.60e-12 3.11e+13  -9.0 2.02e+03    -  9.98e-01 2.69e-05f 16
  16  2.8212311e+01 1.33e-12 3.12e+13  -9.0 1.79e+03    -  9.99e-01 1.52e-05f 17
  17  2.8212311e+01 1.19e-12 3.12e+13  -9.0 1.78e+03    -  1.00e+00 3.81e-06f 19
  18  2.8212311e+01 9.86e-13 3.12e+13  -9.0 1.78e+03    -  1.00e+00 3.81e-06f 19
  19  2.8212310e+01 1.57e-12 3.12e+13  -9.0 1.78e+03    -  1.00e+00 1.91e-06f 20
iter    objective    inf_pr   inf_du lg(mu)  ||d||  lg(rg) alpha_du alpha_pr  ls
  20  2.8099607e+01 7.75e-04 2.99e+05  -9.0 1.78e+03    -  1.00e+00 1.00e+00f  1
  21  2.8098720e+01 9.46e-09 1.90e-04  -9.0 1.27e+01    -  1.00e+00 1.00e+00h  1
  22  2.8098720e+01 1.32e-12 5.82e-11  -9.0 1.12e-04    -  1.00e+00 1.00e+00h  1

Number of Iterations....: 22

                                   (scaled)                 (unscaled)
Objective...............:   2.8098720169491919e+01    2.8098720169491919e+01
Dual infeasibility......:   5.8207660913467407e-11    5.8207660913467407e-11
Constraint violation....:   1.3233858453531866e-12    1.3233858453531866e-12
Complementarity.........:   9.0909090909475942e-10    9.0909090909475942e-10
Overall NLP error.......:   5.8322949463527240e-12    9.0909090909475942e-10


Number of objective function evaluations             = 144
Number of objective gradient evaluations             = 23
Number of equality constraint evaluations            = 144
Number of inequality constraint evaluations          = 0
Number of equality constraint Jacobian evaluations   = 23
Number of inequality constraint Jacobian evaluations = 0
Number of Lagrangian Hessian evaluations             = 22
Total CPU secs in IPOPT (w/o function evaluations)   =      0.032
Total CPU secs in NLP function evaluations           =      0.778

EXIT: Optimal Solution Found.
